Route #1: 17 51 6 2 30 29 45 27 52 8 35 7
Route #2: 53 11 38 65 66 59 14 19 54
Route #3: 13 57 15 5 37 20 70 60 71 36 69 21 47 48 74
Route #4: 73 62 28 61 22 1 43 42 64 41 56 23 63
Route #5: 33 16 49 24 18 50 25 55 31 10 58 72
Route #6: 40 3 44 32 9 39 12 26 67
Route #7: 46 34 4 68 75
Cost 745